1 1 -2 0
1 -3 1 0
1 -3 4 0
1 3 -5 0
1 6 -7 0
1 -6 -8 0
1 6 -9 0
1 -6 -10 0
1 -11 12 0
1 11 -13 0
1 11 -6 0
1 11 -5 0
1 -8 14 0
1 8 15 0
1 -8 -3 0
1 -8 -16 0
1 8 -17 0
1 -8 -18 0
1 8 19 0
1 5 -20 0
1 -5 -14 0
1 5 -15 0
1 -5 21 0
1 5 -3 0
1 5 -18 0
1 5 6 0
1 -5 -1 0
1 22 -14 0
1 -22 23 0
1 22 24 0
1 22 -6 0
1 -22 1 0
1 22 4 0
1 4 -14 0
1 4 23 0
1 4 11 0
1 4 -3 0
1 4 22 0
1 4 17 0
1 4 25 0
1 -4 -24 0
1 -4 6 0
1 4 -1 0
1 19 -7 0
1 -19 -12 0
1 -19 -5 0
1 -21 -23 0
1 -21 -8 0
1 -21 -5 0
1 -18 -15 0
1 -18 26 0
1 18 27 0
1 -18 8 0
1 18 -28 0
1 -18 25 0
1 -18 -29 0
1 15 12 0
1 -15 -30 0
1 15 -27 0
1 -15 -8 0
1 -15 -9 0
1 15 29 0
1 13 -31 0
1 13 32 0
1 13 -33 0
1 13 34 0
1 -13 -35 0
1 12 31 0
1 12 -15 0
1 -12 32 0
1 12 -33 0
1 -12 34 0
1 -12 36 0
1 9 7 0
1 9 -15 0
1 -9 -11 0
1 9 -37 0
1 -9 17 0
1 -9 18 0
1 -9 19 0
1 9 6 0
1 -9 36 0
1 7 38 0
1 7 -39 0
1 -7 -15 0
1 7 21 0
1 -7 11 0
1 7 -32 0
1 -7 -9 0
1 -7 -40 0
1 -7 -17 0
1 -7 -6 0
1 -34 12 0
1 -34 -17 0
1 -34 29 0
1 41 -12 0
1 -41 27 0
1 41 -13 0
1 -41 28 0
1 -41 -29 0
1 -33 -26 0
1 -33 -27 0
1 -33 29 0
1 -31 -26 0
1 -29 31 0
1 -29 -27 0
1 -29 -18 0
1 29 42 0
1 -27 -31 0
1 27 -41 0
1 -27 43 0
1 -27 -44 0
1 27 18 0
1 -27 29 0
1 -27 -42 0
1 28 -31 0
1 -28 26 0
1 -28 45 0
1 -28 32 0
1 28 -33 0
1 28 -42 0
1 26 -41 0
1 26 -15 0
1 -26 -46 0
1 26 44 0
1 26 -45 0
1 26 32 0
1 26 33 0
1 -26 28 0
1 26 -42 0
1 26 47 0
1 26 36 0
1 -2 -1 0
1 -48 49 0
1 -48 -50 0
1 -48 3 0
1 -48 -51 0
1 -10 -49 0
1 10 -52 0
1 -10 -53 0
1 -10 -51 0
1 -10 54 0
1 -10 -6 0
1 -52 -49 0
1 52 -55 0
1 52 -56 0
1 -52 51 0
1 -52 54 0
1 -52 57 0
1 52 10 0
1 50 30 0
1 -50 58 0
1 50 -23 0
1 -50 -52 0
1 50 -48 0
1 -50 -51 0
1 50 25 0
1 -50 24 0
1 -50 -10 0
1 51 30 0
1 51 -52 0
1 -51 48 0
1 -51 -59 0
1 -51 25 0
1 -51 2 0
1 -49 -60 0
1 49 52 0
1 53 61 0
1 24 -55 0
1 24 -23 0
1 24 54 0
1 -24 -57 0
1 -24 4 0
1 -23 -50 0
1 23 -21 0
1 23 -51 0
1 -23 -54 0
1 -23 4 0
1 -25 50 0
1 -25 -30 0
1 -25 55 0
1 25 -62 0
1 -25 63 0
1 25 -22 0
1 -25 -54 0
1 25 18 0
1 25 -57 0
1 25 64 0
1 -30 57 0
1 30 55 0
1 -30 56 0
1 30 63 0
1 30 51 0
1 -30 25 0
1 30 -64 0
1 56 -65 0
1 -56 -57 0
1 -56 -14 0
1 -56 52 0
1 56 66 0
1 -56 -25 0
1 56 -10 0
1 57 65 0
1 57 14 0
1 57 -30 0
1 -57 -23 0
1 57 52 0
1 57 -25 0
1 -57 67 0
1 -57 -24 0
1 55 65 0
1 55 30 0
1 55 68 0
1 -55 54 0
1 -54 -65 0
1 -54 -30 0
1 -54 -52 0
1 54 -25 0
1 54 -24 0
1 -17 7 0
1 -17 -14 0
1 17 -62 0
1 17 -63 0
1 -17 -22 0
1 17 -9 0
1 17 64 0
1 -14 -41 0
1 14 62 0
1 -14 -63 0
1 14 22 0
1 14 8 0
1 14 17 0
1 -14 57 0
1 14 64 0
1 14 4 0
1 -40 -38 0
1 -40 -62 0
1 40 -63 0
1 40 -69 0
1 40 -33 0
1 -40 -70 0
1 -38 20 0
1 38 31 0
1 -38 7 0
1 38 -62 0
1 38 57 0
1 -38 -71 0
1 -63 -38 0
1 -63 -14 0
1 -63 30 0
1 -63 -72 0
1 63 45 0
1 63 73 0
1 -63 -32 0
1 -63 17 0
1 -63 25 0
1 -63 -64 0
1 -63 74 0
1 63 -47 0
1 63 -36 0
1 -64 14 0
1 -64 -30 0
1 -64 63 0
1 64 -72 0
1 -64 -45 0
1 -64 -32 0
1 -64 47 0
1 64 36 0
1 -62 -38 0
1 -62 -14 0
1 62 -40 0
1 -62 17 0
1 -62 25 0
1 -62 75 0
1 70 65 0
1 70 14 0
1 70 72 0
1 70 40 0
1 70 -76 0
1 70 74 0
1 70 75 0
1 32 7 0
1 -32 26 0
1 -32 69 0
1 -32 66 0
1 -32 -9 0
1 -32 16 0
1 -36 65 0
1 -36 -7 0
1 36 -20 0
1 36 -26 0
1 36 63 0
1 36 69 0
1 36 -16 0
1 -36 -9 0
1 36 -13 0
1 36 28 0
1 36 -64 0
1 -36 71 0
1 45 -20 0
1 45 39 0
1 45 69 0
1 45 16 0
1 -45 -35 0
1 45 64 0
1 45 -71 0
1 47 -20 0
1 -47 -77 0
1 47 -26 0
1 -47 -63 0
1 -47 45 0
1 47 -69 0
1 16 -20 0
1 16 -78 0
1 16 45 0
1 16 8 0
1 -16 -79 0
1 -16 -42 0
1 16 -47 0
1 -16 36 0
1 20 -78 0
1 -20 -44 0
1 20 32 0
1 20 -16 0
1 20 -40 0
1 20 79 0
1 -20 -80 0
1 20 47 0
1 -69 38 0
1 -69 81 0
1 69 72 0
1 -69 32 0
1 69 40 0
1 69 79 0
1 -69 82 0
1 69 74 0
1 -69 -36 0
1 -71 38 0
1 71 -81 0
1 -71 -72 0
1 71 69 0
1 -71 40 0
1 71 79 0
1 71 -82 0
1 -71 74 0
1 -71 -36 0
1 -44 -77 0
1 -44 16 0
1 44 -35 0
1 44 28 0
1 -44 29 0
1 42 -20 0
1 42 39 0
1 42 26 0
1 42 27 0
1 -42 44 0
1 42 -37 0
1 42 -28 0
1 -42 -29 0
1 83 77 0
1 -83 -46 0
1 83 -43 0
1 83 -16 0
1 83 -35 0
1 -83 -84 0
1 -80 39 0
1 80 77 0
1 80 37 0
1 -80 -35 0
1 -80 -82 0
1 35 -77 0
1 35 -85 0
1 35 83 0
1 -35 44 0
1 35 -86 0
1 35 80 0
1 -35 -42 0
1 -35 -47 0
1 -77 12 0
1 77 -87 0
1 77 85 0
1 77 -45 0
1 -77 -47 0
1 -37 -88 0
1 -37 78 0
1 37 45 0
1 -37 80 0
1 39 88 0
1 -39 -78 0
1 -39 -45 0
1 39 -37 0
1 -39 -89 0
1 39 -42 0
1 85 77 0
1 85 -84 0
1 -85 -35 0
1 -85 90 0
1 86 -77 0
1 86 85 0
1 -86 -43 0
1 -86 -35 0
1 -86 -84 0
1 86 -79 0
1 86 -90 0
1 87 88 0
1 -87 -43 0
1 87 91 0
1 87 35 0
1 -87 84 0
1 91 46 0
1 91 43 0
1 91 89 0
1 -90 -87 0
1 90 -85 0
1 90 83 0
1 90 86 0
1 43 27 0
1 -43 -86 0
1 84 -87 0
1 84 -46 0
1 84 -85 0
1 -84 -83 0
1 -84 -28 0
1 46 26 0
1 46 85 0
1 -46 -83 0
1 -46 86 0
1 -66 -56 0
1 66 62 0
1 66 -61 0
1 -66 54 0
1 -66 -57 0
1 66 -70 0
1 -65 60 0
1 -65 62 0
1 -65 -66 0
1 -65 61 0
1 -65 59 0
1 65 -54 0
1 -65 -57 0
1 65 70 0
1 92 58 0
1 -92 -93 0
1 -92 62 0
1 -92 -45 0
1 -92 61 0
1 92 -59 0
1 -92 -94 0
1 -92 70 0
1 75 -60 0
1 -75 58 0
1 75 -68 0
1 -75 -93 0
1 75 -92 0
1 75 94 0
1 75 67 0
1 75 -70 0
1 58 -92 0
1 -58 -59 0
1 58 82 0
1 -59 81 0
1 -59 -92 0
1 -59 66 0
1 59 74 0
1 59 75 0
1 60 49 0
1 60 -92 0
1 -60 66 0
1 61 -65 0
1 -61 92 0
1 61 -66 0
1 -61 -75 0
1 72 58 0
1 72 68 0
1 -72 -44 0
1 -72 59 0
1 -72 -94 0
1 72 -67 0
1 -72 70 0
1 74 -58 0
1 74 -68 0
1 -74 93 0
1 74 72 0
1 74 69 0
1 -74 59 0
1 -74 -67 0
1 81 -93 0
1 81 95 0
1 81 -73 0
1 81 -69 0
1 -81 59 0
1 81 94 0
1 -81 67 0
1 -81 -71 0
1 82 -93 0
1 -82 -95 0
1 -82 59 0
1 82 71 0
1 93 56 0
1 -93 81 0
1 93 -89 0
1 -93 82 0
1 -93 75 0
1 67 88 0
1 67 72 0
1 67 92 0
1 -67 -89 0
1 -67 57 0
1 -67 -82 0
1 68 -94 0
1 -68 82 0
1 -68 -75 0
1 94 -72 0
1 -94 -92 0
1 94 74 0
1 -78 20 0
1 78 39 0
1 -78 93 0
1 -78 16 0
1 78 37 0
1 78 -76 0
1 -79 -93 0
1 79 95 0
1 -79 73 0
1 -79 16 0
1 79 -86 0
1 -79 -67 0
1 79 -96 0
1 88 93 0
1 -88 -73 0
1 -88 -89 0
1 88 67 0
1 -88 -76 0
1 89 -88 0
1 -89 -73 0
1 -89 -37 0
1 -89 91 0
1 89 -67 0
1 73 -88 0
1 -73 -78 0
1 -73 -81 0
1 -73 -89 0
1 96 -81 0
1 -96 -73 0
1 96 89 0
1 96 79 0
1 -95 -88 0
1 -95 -78 0
1 95 82 0
1 76 -78 0
1 -76 95 0
1 -76 79 0
